DIMACS_lns/graph-1000-725.col
p edge 1000 1848
e 1 647
e 1 564
e 1 674
e 1 502
e 1 319
e 4 553
e 4 371
e 4 689
e 5 112
e 5 490
e 5 853
e 6 378
e 6 980
e 6 400
e 6 570
e 6 279
e 6 488
e 6 930
e 8 803
e 8 534
e 8 764
e 8 69
e 8 504
e 10 615
e 10 686
e 10 640
e 10 241
e 11 255
e 11 558
e 11 882
e 11 315
e 11 64
e 13 85
e 13 400
e 13 252
e 13 581
e 13 817
e 13 446
e 14 948
e 14 56
e 14 399
e 16 335
e 16 907
e 16 144
e 16 704
e 16 668
e 16 698
e 16 359
e 17 965
e 17 276
e 17 970
e 17 874
e 19 964
e 19 798
e 19 339
e 19 859
e 19 243
e 19 957
e 19 367
e 21 624
e 21 610
e 21 30
e 21 767
e 21 380
e 21 260
e 22 856
e 22 838
e 22 827
e 23 50
e 23 413
e 23 822
e 23 84
e 23 301
e 23 952
e 23 451
e 23 565
e 23 610
e 23 872
e 23 292
e 23 165
e 24 741
e 24 109
e 24 480
e 24 160
e 24 602
e 24 114
e 24 308
e 25 777
e 25 871
e 25 997
e 25 859
e 25 483
e 25 315
e 25 692
e 26 342
e 26 296
e 26 730
e 26 656
e 27 41
e 27 526
e 27 282
e 28 910
e 28 678
e 28 70
e 28 637
e 29 235
e 29 983
e 29 303
e 29 972
e 29 213
e 30 582
e 30 57
e 32 186
e 32 99
e 32 67
e 33 552
e 33 532
e 33 415
e 33 831
e 35 455
e 35 237
e 35 58
e 35 725
e 35 594
e 36 983
e 36 537
e 36 725
e 38 677
e 38 506
e 38 933
e 39 234
e 39 564
e 39 43
e 39 904
e 39 459
e 40 577
e 40 816
e 40 551
e 40 57
e 40 948
e 40 540
e 41 835
e 41 333
e 41 573
e 41 243
e 41 560
e 42 965
e 42 786
e 42 557
e 42 66
e 43 355
e 43 448
e 43 180
e 43 198
e 43 359
e 44 813
e 44 911
e 44 737
e 44 563
e 44 412
e 44 983
e 45 441
e 45 758
e 45 732
e 45 373
e 45 837
e 45 84
e 45 481
e 45 946
e 46 976
e 46 515
e 46 98
e 46 739
e 46 423
e 46 954
e 46 345
e 46 624
e 47 689
e 47 859
e 47 772
e 47 95
e 47 840
e 47 971
e 48 295
e 48 381
e 48 584
e 49 867
e 49 516
e 49 658
e 49 478
e 49 637
e 50 259
e 50 486
e 50 864
e 50 322
e 50 373
e 51 219
e 51 431
e 51 773
e 52 344
e 52 480
e 52 837
e 52 486
e 53 120
e 53 982
e 53 280
e 53 707
e 53 249
e 54 972
e 54 529
e 54 562
e 54 719
e 56 277
e 56 489
e 57 119
e 57 257
e 57 132
e 57 756
e 58 994
e 58 632
e 58 904
e 60 229
e 60 681
e 60 413
e 61 606
e 61 289
e 61 169
e 61 120
e 62 255
e 62 620
e 62 102
e 62 362
e 62 470
e 63 156
e 63 831
e 63 322
e 63 252
e 63 650
e 64 640
e 64 717
e 65 853
e 65 337
e 65 326
e 65 289
e 65 594
e 65 490
e 65 780
e 65 292
e 66 922
e 66 427
e 66 533
e 67 414
e 67 166
e 67 903
e 67 483
e 68 299
e 68 710
e 68 771
e 69 928
e 69 423
e 70 687
e 70 187
e 72 843
e 72 383
e 72 625
e 72 190
e 72 590
e 72 242
e 72 436
e 73 689
e 73 569
e 73 759
e 73 506
e 73 399
e 73 350
e 75 546
e 75 531
e 75 311
e 75 96
e 75 88
e 76 181
e 76 347
e 76 237
e 76 741
e 76 336
e 76 346
e 76 485
e 78 207
e 78 488
e 78 952
e 79 270
e 79 599
e 79 654
e 79 534
e 79 133
e 80 400
e 80 707
e 80 248
e 82 384
e 82 694
e 82 777
e 82 808
e 84 895
e 84 780
e 84 384
e 84 634
e 84 550
e 84 868
e 84 311
e 85 384
e 85 495
e 85 356
e 85 966
e 85 370
e 85 679
e 87 436
e 87 757
e 87 637
e 87 300
e 88 729
e 88 491
e 88 291
e 90 384
e 90 151
e 90 699
e 91 217
e 91 509
e 91 101
e 91 245
e 91 129
e 91 791
e 92 592
e 92 263
e 92 642
e 92 896
e 93 154
e 93 824
e 93 141
e 95 862
e 95 267
e 96 453
e 96 442
e 96 201
e 96 651
e 96 529
e 96 312
e 97 543
e 97 174
e 97 792
e 97 602
e 97 801
e 97 965
e 98 506
e 98 310
e 98 180
e 98 639
e 99 600
e 99 969
e 99 225
e 99 429
e 99 533
e 99 945
e 101 804
e 101 103
e 101 584
e 101 336
e 101 906
e 101 734
e 102 179
e 102 794
e 102 252
e 103 313
e 103 153
e 103 328
e 103 889
e 103 923
e 104 334
e 104 308
e 104 893
e 104 263
e 105 329
e 105 275
e 105 484
e 105 418
e 106 409
e 106 257
e 106 703
e 109 336
e 109 263
e 109 903
e 110 316
e 110 694
e 110 133
e 112 213
e 112 376
e 112 792
e 112 282
e 113 165
e 113 768
e 113 944
e 113 327
e 114 130
e 114 186
e 114 736
e 114 409
e 114 915
e 114 205
e 115 605
e 115 687
e 115 714
e 115 785
e 116 400
e 116 811
e 116 679
e 116 867
e 116 598
e 117 724
e 117 596
e 117 460
e 117 542
e 119 739
e 119 853
e 119 476
e 119 621
e 120 938
e 121 882
e 121 845
e 121 233
e 121 483
e 121 749
e 121 551
e 122 858
e 122 912
e 122 854
e 122 736
e 122 208
e 122 295
e 122 704
e 126 708
e 126 313
e 126 930
e 126 277
e 128 187
e 128 316
e 128 203
e 128 723
e 128 241
e 128 904
e 129 638
e 129 295
e 130 722
e 130 361
e 130 755
e 130 280
e 130 992
e 130 497
e 132 577
e 132 896
e 133 910
e 133 481
e 133 234
e 136 429
e 136 397
e 136 241
e 136 399
e 136 207
e 136 303
e 138 890
e 138 169
e 138 937
e 139 392
e 139 290
e 139 247
e 139 242
e 139 531
e 139 370
e 139 369
e 140 919
e 140 887
e 140 335
e 141 358
e 141 150
e 141 367
e 142 619
e 142 928
e 142 408
e 143 409
e 143 822
e 143 712
e 143 783
e 144 395
e 144 565
e 144 297
e 145 724
e 145 970
e 145 408
e 145 402
e 149 495
e 149 608
e 149 638
e 149 758
e 150 767
e 150 181
e 150 231
e 151 203
e 151 308
e 151 861
e 151 732
e 151 921
e 152 155
e 152 635
e 152 600
e 152 798
e 153 295
e 153 573
e 153 853
e 154 729
e 154 383
e 154 916
e 155 644
e 155 903
e 155 481
e 155 600
e 156 489
e 156 393
e 157 806
e 157 186
e 157 311
e 157 497
e 157 535
e 158 681
e 158 672
e 158 647
e 160 723
e 160 557
e 161 411
e 161 644
e 161 558
e 161 305
e 163 447
e 163 314
e 163 773
e 165 350
e 165 742
e 165 755
e 165 338
e 165 878
e 165 740
e 165 952
e 166 792
e 166 270
e 167 296
e 167 773
e 167 919
e 169 798
e 170 585
e 170 861
e 170 373
e 170 266
e 170 760
e 171 799
e 171 322
e 171 960
e 172 691
e 172 236
e 172 948
e 172 809
e 173 632
e 173 509
e 173 174
e 174 542
e 174 319
e 175 687
e 175 258
e 175 447
e 175 509
e 175 779
e 175 587
e 175 531
e 176 524
e 176 746
e 176 965
e 179 632
e 179 304
e 179 181
e 179 662
e 179 383
e 179 609
e 180 825
e 180 636
e 180 682
e 180 343
e 180 893
e 180 468
e 180 779
e 181 570
e 181 839
e 181 906
e 182 988
e 182 279
e 182 348
e 182 845
e 183 205
e 183 754
e 183 587
e 183 836
e 183 453
e 184 382
e 184 584
e 184 563
e 186 390
e 187 918
e 187 607
e 187 808
e 187 820
e 187 652
e 189 656
e 189 737
e 189 466
e 189 620
e 189 483
e 190 546
e 190 882
e 190 635
e 192 281
e 192 235
e 192 504
e 192 741
e 192 729
e 194 547
e 194 751
e 194 729
e 194 246
e 195 916
e 195 918
e 195 270
e 195 574
e 195 246
e 195 720
e 196 791
e 196 380
e 196 937
e 196 333
e 197 928
e 197 597
e 197 991
e 197 710
e 197 393
e 197 879
e 198 847
e 198 551
e 198 854
e 199 890
e 199 938
e 199 506
e 199 368
e 201 289
e 201 994
e 201 370
e 201 297
e 203 592
e 203 724
e 204 479
e 204 258
e 204 796
e 205 722
e 205 696
e 207 286
e 207 721
e 207 946
e 207 921
e 207 744
e 207 315
e 208 362
e 208 261
e 211 503
e 211 516
e 211 971
e 211 946
e 211 579
e 212 601
e 212 588
e 212 741
e 212 750
e 212 341
e 213 953
e 213 807
e 213 291
e 215 887
e 215 723
e 215 944
e 215 350
e 217 947
e 217 326
e 218 822
e 218 308
e 218 240
e 219 609
e 219 433
e 219 496
e 219 490
e 221 882
e 221 699
e 221 427
e 222 922
e 222 238
e 222 761
e 224 282
e 224 906
e 224 907
e 225 771
e 225 893
e 226 740
e 226 773
e 226 551
e 226 650
e 226 397
e 228 679
e 228 306
e 228 254
e 228 801
e 228 308
e 229 263
e 229 662
e 229 958
e 231 546
e 231 822
e 232 286
e 232 621
e 232 609
e 232 937
e 232 918
e 233 434
e 233 400
e 233 519
e 233 564
e 233 606
e 233 927
e 234 742
e 234 378
e 234 606
e 235 251
e 235 369
e 236 367
e 236 674
e 236 987
e 237 988
e 237 560
e 237 588
e 238 946
e 238 901
e 239 719
e 239 531
e 239 494
e 239 782
e 239 397
e 239 525
e 239 959
e 240 657
e 240 498
e 240 938
e 241 691
e 242 827
e 242 756
e 242 644
e 242 531
e 242 387
e 243 692
e 243 420
e 243 458
e 243 494
e 243 928
e 244 539
e 244 906
e 244 975
e 244 517
e 245 738
e 245 296
e 245 783
e 246 835
e 246 863
e 246 394
e 246 473
e 246 273
e 247 794
e 247 701
e 248 756
e 248 491
e 248 632
e 248 645
e 248 315
e 249 525
e 249 275
e 249 717
e 251 552
e 251 937
e 254 748
e 254 687
e 254 329
e 255 645
e 255 894
e 255 600
e 257 637
e 257 909
e 257 939
e 257 813
e 258 745
e 259 540
e 259 545
e 259 384
e 259 338
e 259 732
e 260 347
e 260 607
e 260 582
e 260 895
e 260 558
e 260 923
e 261 534
e 261 317
e 261 464
e 263 431
e 263 770
e 263 724
e 266 541
e 266 608
e 266 550
e 267 689
e 267 598
e 268 936
e 268 692
e 268 359
e 268 749
e 268 472
e 270 736
e 270 720
e 272 303
e 272 388
e 272 626
e 272 735
e 272 827
e 273 958
e 273 880
e 273 334
e 273 342
e 274 786
e 274 944
e 274 429
e 275 896
e 275 540
e 275 463
e 275 293
e 276 617
e 276 532
e 277 599
e 277 658
e 277 286
e 279 635
e 279 283
e 279 927
e 279 744
e 280 442
e 280 579
e 280 505
e 280 734
e 280 899
e 281 801
e 281 824
e 281 725
e 282 945
e 282 915
e 282 532
e 283 329
e 283 777
e 283 804
e 283 835
e 286 727
e 286 674
e 286 728
e 286 722
e 288 952
e 288 508
e 288 896
e 289 552
e 289 735
e 289 781
e 289 864
e 289 608
e 290 774
e 290 356
e 290 868
e 290 861
e 291 856
e 291 825
e 291 302
e 291 461
e 292 502
e 292 692
e 293 391
e 293 395
e 293 533
e 294 943
e 294 323
e 294 385
e 294 941
e 294 693
e 295 373
e 295 819
e 295 346
e 296 376
e 296 537
e 296 979
e 296 303
e 297 954
e 297 359
e 299 459
e 299 322
e 299 798
e 299 894
e 300 762
e 300 685
e 300 344
e 300 671
e 301 553
e 301 685
e 301 590
e 302 751
e 302 549
e 302 385
e 302 602
e 303 461
e 304 826
e 304 488
e 305 920
e 305 972
e 305 875
e 305 759
e 305 390
e 305 570
e 305 621
e 305 841
e 305 777
e 306 594
e 306 486
e 307 604
e 307 855
e 307 784
e 308 962
e 308 428
e 308 335
e 308 513
e 310 337
e 310 329
e 310 369
e 311 689
e 311 909
e 312 720
e 312 671
e 313 794
e 313 558
e 313 832
e 313 941
e 313 748
e 314 843
e 314 646
e 314 517
e 314 353
e 315 453
e 315 418
e 315 863
e 315 333
e 316 869
e 316 814
e 317 401
e 317 335
e 317 342
e 319 816
e 319 394
e 321 453
e 321 465
e 321 861
e 321 866
e 321 611
e 321 382
e 322 399
e 322 851
e 322 692
e 323 522
e 323 708
e 324 499
e 324 749
e 324 909
e 326 591
e 326 708
e 327 699
e 327 796
e 327 339
e 328 988
e 328 522
e 328 457
e 329 698
e 332 459
e 332 513
e 332 668
e 333 596
e 333 565
e 333 620
e 333 468
e 334 597
e 334 611
e 334 335
e 334 622
e 335 499
e 335 350
e 335 895
e 336 388
e 336 636
e 336 745
e 337 494
e 337 923
e 338 811
e 338 496
e 338 977
e 338 860
e 339 864
e 339 651
e 339 531
e 341 796
e 341 699
e 341 415
e 342 425
e 342 905
e 342 717
e 342 548
e 343 780
e 343 927
e 343 428
e 344 714
e 344 479
e 344 836
e 345 739
e 345 806
e 345 590
e 346 632
e 346 741
e 346 448
e 346 395
e 347 724
e 347 701
e 348 912
e 348 946
e 350 440
e 350 508
e 350 707
e 350 915
e 353 929
e 353 751
e 354 525
e 354 858
e 354 724
e 355 622
e 355 836
e 355 758
e 356 636
e 357 597
e 357 582
e 357 497
e 357 765
e 358 611
e 358 403
e 358 813
e 359 843
e 359 638
e 359 725
e 359 920
e 361 811
e 361 411
e 362 980
e 362 839
e 362 399
e 363 603
e 363 874
e 363 771
e 363 584
e 367 755
e 367 480
e 367 901
e 367 712
e 368 489
e 368 478
e 368 855
e 368 516
e 369 997
e 369 825
e 371 926
e 371 749
e 371 898
e 371 636
e 372 619
e 372 982
e 372 666
e 373 667
e 373 661
e 373 494
e 374 943
e 374 953
e 374 712
e 374 792
e 374 867
e 376 731
e 378 641
e 378 701
e 378 895
e 378 525
e 378 504
e 378 975
e 378 459
e 378 389
e 380 440
e 380 979
e 380 517
e 381 922
e 381 753
e 381 772
e 382 755
e 383 521
e 383 958
e 384 851
e 385 698
e 387 824
e 387 733
e 388 636
e 388 966
e 388 704
e 388 822
e 389 531
e 389 433
e 389 792
e 390 827
e 390 654
e 391 812
e 391 884
e 391 908
e 391 774
e 392 722
e 392 654
e 393 759
e 394 722
e 394 948
e 394 813
e 395 938
e 395 429
e 395 485
e 395 662
e 396 600
e 396 502
e 396 582
e 396 434
e 397 906
e 399 670
e 399 581
e 399 992
e 400 820
e 400 725
e 400 687
e 400 905
e 401 923
e 401 678
e 401 731
e 401 989
e 401 794
e 401 892
e 402 757
e 402 654
e 403 976
e 403 641
e 403 464
e 403 666
e 407 621
e 407 933
e 407 679
e 408 773
e 409 506
e 409 933
e 411 624
e 411 985
e 411 794
e 411 715
e 412 415
e 412 661
e 412 714
e 412 520
e 413 609
e 413 476
e 413 860
e 414 624
e 414 933
e 414 499
e 414 817
e 414 637
e 415 753
e 415 877
e 415 624
e 418 552
e 418 681
e 420 708
e 420 705
e 420 577
e 420 859
e 423 762
e 423 522
e 423 494
e 423 807
e 425 525
e 425 720
e 427 924
e 427 908
e 427 542
e 428 799
e 429 588
e 431 918
e 431 944
e 431 681
e 431 713
e 431 707
e 433 795
e 433 875
e 434 548
e 434 552
e 436 819
e 436 469
e 437 820
e 437 850
e 437 853
e 440 854
e 440 634
e 440 915
e 440 784
e 440 541
e 440 461
e 441 636
e 441 800
e 441 678
e 442 888
e 442 652
e 442 994
e 443 971
e 443 898
e 443 505
e 446 638
e 446 747
e 447 724
e 447 645
e 447 795
e 448 877
e 448 943
e 448 532
e 448 864
e 448 660
e 451 982
e 451 757
e 451 675
e 453 598
e 453 509
e 454 874
e 454 888
e 454 722
e 455 604
e 455 460
e 455 885
e 455 495
e 456 476
e 456 466
e 456 512
e 457 473
e 457 771
e 458 481
e 458 942
e 458 832
e 459 850
e 459 524
e 459 479
e 460 659
e 460 642
e 461 815
e 463 743
e 463 547
e 463 496
e 463 929
e 463 871
e 463 780
e 464 879
e 464 807
e 464 947
e 465 811
e 465 804
e 465 491
e 465 553
e 465 901
e 466 495
e 466 546
e 466 921
e 466 705
e 468 947
e 468 780
e 469 698
e 469 707
e 469 790
e 469 621
e 470 787
e 470 609
e 470 991
e 472 808
e 472 686
e 472 587
e 473 830
e 475 852
e 475 723
e 475 672
e 475 708
e 475 546
e 476 516
e 476 888
e 478 730
e 478 788
e 479 596
e 481 587
e 481 552
e 481 849
e 483 648
e 484 970
e 484 500
e 485 714
e 485 893
e 486 719
e 488 997
e 488 859
e 489 998
e 489 858
e 489 909
e 490 747
e 490 626
e 491 922
e 491 670
e 491 690
e 491 548
e 491 594
e 494 583
e 494 832
e 496 504
e 496 800
e 497 872
e 497 694
e 497 504
e 498 728
e 498 516
e 499 777
e 500 610
e 500 624
e 500 525
e 502 938
e 502 695
e 502 954
e 503 814
e 503 604
e 503 854
e 504 785
e 504 773
e 504 837
e 504 830
e 504 957
e 505 508
e 506 826
e 508 782
e 508 539
e 508 685
e 509 768
e 509 923
e 512 587
e 512 639
e 513 535
e 513 841
e 515 922
e 515 666
e 516 667
e 518 531
e 518 596
e 518 617
e 519 601
e 519 893
e 520 650
e 520 989
e 521 703
e 521 550
e 522 804
e 524 774
e 524 852
e 525 546
e 525 768
e 525 618
e 526 966
e 526 970
e 529 937
e 529 546
e 529 715
e 529 620
e 529 601
e 529 744
e 530 739
e 530 637
e 530 809
e 531 594
e 531 985
e 532 677
e 534 648
e 534 573
e 535 591
e 535 890
e 537 710
e 537 850
e 537 751
e 537 703
e 539 874
e 539 806
e 539 543
e 539 941
e 539 945
e 540 888
e 540 784
e 541 695
e 541 755
e 542 856
e 543 641
e 543 885
e 543 897
e 545 808
e 545 897
e 545 548
e 546 885
e 546 721
e 546 680
e 547 734
e 548 831
e 548 733
e 548 761
e 548 569
e 548 938
e 549 992
e 549 727
e 550 898
e 551 790
e 551 844
e 551 772
e 552 557
e 552 808
e 552 626
e 552 591
e 552 693
e 553 562
e 558 869
e 558 918
e 560 745
e 560 606
e 562 849
e 562 660
e 562 812
e 562 714
e 563 905
e 563 564
e 563 584
e 564 991
e 565 610
e 565 939
e 566 660
e 566 879
e 566 840
e 566 907
e 569 960
e 569 830
e 569 861
e 569 754
e 569 851
e 573 727
e 573 667
e 574 749
e 574 879
e 575 757
e 575 680
e 575 769
e 577 837
e 579 933
e 579 618
e 581 949
e 581 715
e 581 878
e 581 608
e 581 677
e 581 783
e 582 692
e 583 998
e 583 780
e 584 960
e 584 712
e 584 782
e 585 786
e 585 702
e 587 608
e 588 840
e 590 782
e 591 985
e 591 999
e 592 690
e 596 758
e 597 860
e 597 894
e 597 625
e 598 855
e 598 897
e 598 701
e 598 924
e 599 635
e 599 792
e 600 924
e 600 725
e 600 934
e 600 906
e 601 819
e 602 891
e 602 657
e 602 686
e 603 738
e 603 985
e 604 701
e 604 849
e 604 744
e 604 939
e 605 958
e 605 687
e 605 959
e 606 743
e 606 969
e 606 825
e 607 844
e 607 899
e 607 757
e 607 698
e 609 682
e 609 664
e 609 661
e 611 771
e 615 819
e 615 827
e 615 899
e 617 920
e 617 854
e 618 678
e 618 916
e 618 960
e 619 984
e 619 742
e 619 838
e 620 975
e 620 755
e 620 863
e 621 707
e 621 906
e 622 774
e 622 712
e 624 929
e 625 692
e 626 851
e 632 919
e 632 898
e 634 949
e 634 901
e 635 669
e 635 808
e 635 866
e 636 648
e 637 896
e 638 948
e 638 885
e 639 753
e 639 923
e 640 927
e 640 744
e 641 690
e 641 754
e 642 890
e 642 853
e 642 656
e 645 839
e 645 820
e 645 790
e 646 932
e 646 871
e 646 964
e 647 891
e 647 859
e 647 830
e 647 903
e 648 847
e 650 916
e 651 734
e 652 735
e 652 668
e 652 804
e 654 884
e 657 907
e 658 768
e 659 942
e 659 809
e 659 783
e 660 748
e 660 672
e 660 928
e 662 730
e 662 773
e 664 745
e 664 787
e 666 975
e 667 854
e 669 682
e 669 862
e 669 885
e 670 792
e 671 948
e 671 901
e 672 860
e 674 987
e 675 904
e 675 932
e 677 915
e 678 923
e 678 809
e 679 868
e 680 765
e 680 893
e 682 903
e 682 892
e 685 860
e 686 695
e 686 737
e 687 893
e 689 777
e 689 952
e 690 720
e 690 791
e 690 803
e 690 856
e 690 850
e 691 977
e 691 924
e 692 784
e 693 882
e 694 860
e 694 704
e 694 851
e 696 774
e 696 894
e 698 947
e 698 770
e 698 879
e 699 808
e 699 937
e 701 760
e 701 844
e 702 760
e 702 816
e 702 988
e 703 807
e 704 708
e 704 747
e 705 749
e 705 971
e 707 904
e 707 916
e 710 932
e 712 767
e 712 879
e 713 740
e 713 957
e 713 965
e 713 887
e 713 946
e 713 807
e 714 991
e 714 901
e 714 880
e 715 918
e 717 929
e 719 877
e 719 959
e 721 850
e 724 757
e 725 841
e 725 749
e 728 811
e 730 897
e 731 862
e 732 953
e 733 999
e 734 822
e 736 895
e 736 905
e 737 853
e 738 855
e 738 799
e 741 847
e 741 815
e 743 907
e 743 942
e 744 893
e 744 845
e 744 798
e 745 920
e 746 934
e 746 885
e 746 889
e 747 832
e 747 753
e 749 845
e 749 932
e 749 761
e 750 769
e 750 880
e 753 767
e 754 782
e 754 926
e 754 941
e 754 815
e 756 769
e 758 885
e 760 962
e 761 787
e 762 772
e 764 861
e 764 943
e 765 923
e 769 906
e 770 912
e 770 894
e 771 813
e 773 893
e 777 813
e 777 808
e 779 856
e 779 848
e 780 809
e 781 942
e 781 840
e 783 790
e 784 892
e 785 854
e 786 800
e 787 899
e 788 992
e 788 840
e 790 950
e 795 817
e 799 985
e 799 988
e 799 811
e 801 844
e 803 932
e 803 987
e 807 879
e 807 946
e 808 859
e 809 864
e 809 943
e 809 893
e 811 815
e 812 880
e 813 936
e 814 905
e 814 887
e 816 946
e 819 825
e 819 912
e 819 845
e 820 926
e 820 962
e 820 831
e 826 998
e 831 997
e 836 969
e 838 923
e 839 969
e 839 849
e 839 851
e 839 869
e 843 942
e 845 885
e 845 909
e 847 932
e 848 918
e 848 979
e 849 877
e 851 984
e 852 949
e 852 858
e 853 997
e 855 937
e 856 894
e 859 878
e 860 875
e 861 952
e 866 911
e 867 938
e 869 984
e 872 915
e 874 989
e 879 880
e 879 971
e 880 964
e 882 938
e 884 936
e 884 970
e 887 975
e 889 904
e 889 910
e 889 936
e 890 924
e 890 942
e 891 918
e 895 976
e 896 954
e 904 977
e 908 934
e 909 950
e 910 994
e 911 930
e 912 943
e 921 952
e 922 982
e 926 948
e 927 999
e 932 965
e 934 949
e 937 980
e 943 966
e 946 965
e 947 970
e 948 950
e 953 997
e 962 977
e 992 994
