txt_Ins/graph-1000-725.txt
n 1000
e 0 646
e 0 563
e 0 673
e 0 501
e 0 318
e 3 552
e 3 370
e 3 688
e 4 111
e 4 489
e 4 852
e 5 377
e 5 979
e 5 399
e 5 569
e 5 278
e 5 487
e 5 929
e 7 802
e 7 533
e 7 763
e 7 68
e 7 503
e 9 614
e 9 685
e 9 639
e 9 240
e 10 254
e 10 557
e 10 881
e 10 314
e 10 63
e 12 84
e 12 399
e 12 251
e 12 580
e 12 816
e 12 445
e 13 947
e 13 55
e 13 398
e 15 334
e 15 906
e 15 143
e 15 703
e 15 667
e 15 697
e 15 358
e 16 964
e 16 275
e 16 969
e 16 873
e 18 963
e 18 797
e 18 338
e 18 858
e 18 242
e 18 956
e 18 366
e 20 623
e 20 609
e 20 29
e 20 766
e 20 379
e 20 259
e 21 855
e 21 837
e 21 826
e 22 49
e 22 412
e 22 821
e 22 83
e 22 300
e 22 951
e 22 450
e 22 564
e 22 609
e 22 871
e 22 291
e 22 164
e 23 740
e 23 108
e 23 479
e 23 159
e 23 601
e 23 113
e 23 307
e 24 776
e 24 870
e 24 996
e 24 858
e 24 482
e 24 314
e 24 691
e 25 341
e 25 295
e 25 729
e 25 655
e 26 40
e 26 525
e 26 281
e 27 909
e 27 677
e 27 69
e 27 636
e 28 234
e 28 982
e 28 302
e 28 971
e 28 212
e 29 581
e 29 56
e 31 185
e 31 98
e 31 66
e 32 551
e 32 531
e 32 414
e 32 830
e 34 454
e 34 236
e 34 57
e 34 724
e 34 593
e 35 982
e 35 536
e 35 724
e 37 676
e 37 505
e 37 932
e 38 233
e 38 563
e 38 42
e 38 903
e 38 458
e 39 576
e 39 815
e 39 550
e 39 56
e 39 947
e 39 539
e 40 834
e 40 332
e 40 572
e 40 242
e 40 559
e 41 964
e 41 785
e 41 556
e 41 65
e 42 354
e 42 447
e 42 179
e 42 197
e 42 358
e 43 812
e 43 910
e 43 736
e 43 562
e 43 411
e 43 982
e 44 440
e 44 757
e 44 731
e 44 372
e 44 836
e 44 83
e 44 480
e 44 945
e 45 975
e 45 514
e 45 97
e 45 738
e 45 422
e 45 953
e 45 344
e 45 623
e 46 688
e 46 858
e 46 771
e 46 94
e 46 839
e 46 970
e 47 294
e 47 380
e 47 583
e 48 866
e 48 515
e 48 657
e 48 477
e 48 636
e 49 258
e 49 485
e 49 863
e 49 321
e 49 372
e 50 218
e 50 430
e 50 772
e 51 343
e 51 479
e 51 836
e 51 485
e 52 119
e 52 981
e 52 279
e 52 706
e 52 248
e 53 971
e 53 528
e 53 561
e 53 718
e 55 276
e 55 488
e 56 118
e 56 256
e 56 131
e 56 755
e 57 993
e 57 631
e 57 903
e 59 228
e 59 680
e 59 412
e 60 605
e 60 288
e 60 168
e 60 119
e 61 254
e 61 619
e 61 101
e 61 361
e 61 469
e 62 155
e 62 830
e 62 321
e 62 251
e 62 649
e 63 639
e 63 716
e 64 852
e 64 336
e 64 325
e 64 288
e 64 593
e 64 489
e 64 779
e 64 291
e 65 921
e 65 426
e 65 532
e 66 413
e 66 165
e 66 902
e 66 482
e 67 298
e 67 709
e 67 770
e 68 927
e 68 422
e 69 686
e 69 186
e 71 842
e 71 382
e 71 624
e 71 189
e 71 589
e 71 241
e 71 435
e 72 688
e 72 568
e 72 758
e 72 505
e 72 398
e 72 349
e 74 545
e 74 530
e 74 310
e 74 95
e 74 87
e 75 180
e 75 346
e 75 236
e 75 740
e 75 335
e 75 345
e 75 484
e 77 206
e 77 487
e 77 951
e 78 269
e 78 598
e 78 653
e 78 533
e 78 132
e 79 399
e 79 706
e 79 247
e 81 383
e 81 693
e 81 776
e 81 807
e 83 894
e 83 779
e 83 383
e 83 633
e 83 549
e 83 867
e 83 310
e 84 383
e 84 494
e 84 355
e 84 965
e 84 369
e 84 678
e 86 435
e 86 756
e 86 636
e 86 299
e 87 728
e 87 490
e 87 290
e 89 383
e 89 150
e 89 698
e 90 216
e 90 508
e 90 100
e 90 244
e 90 128
e 90 790
e 91 591
e 91 262
e 91 641
e 91 895
e 92 153
e 92 823
e 92 140
e 94 861
e 94 266
e 95 452
e 95 441
e 95 200
e 95 650
e 95 528
e 95 311
e 96 542
e 96 173
e 96 791
e 96 601
e 96 800
e 96 964
e 97 505
e 97 309
e 97 179
e 97 638
e 98 599
e 98 968
e 98 224
e 98 428
e 98 532
e 98 944
e 100 803
e 100 102
e 100 583
e 100 335
e 100 905
e 100 733
e 101 178
e 101 793
e 101 251
e 102 312
e 102 152
e 102 327
e 102 888
e 102 922
e 103 333
e 103 307
e 103 892
e 103 262
e 104 328
e 104 274
e 104 483
e 104 417
e 105 408
e 105 256
e 105 702
e 108 335
e 108 262
e 108 902
e 109 315
e 109 693
e 109 132
e 111 212
e 111 375
e 111 791
e 111 281
e 112 164
e 112 767
e 112 943
e 112 326
e 113 129
e 113 185
e 113 735
e 113 408
e 113 914
e 113 204
e 114 604
e 114 686
e 114 713
e 114 784
e 115 399
e 115 810
e 115 678
e 115 866
e 115 597
e 116 723
e 116 595
e 116 459
e 116 541
e 118 738
e 118 852
e 118 475
e 118 620
e 119 937
e 120 881
e 120 844
e 120 232
e 120 482
e 120 748
e 120 550
e 121 857
e 121 911
e 121 853
e 121 735
e 121 207
e 121 294
e 121 703
e 125 707
e 125 312
e 125 929
e 125 276
e 127 186
e 127 315
e 127 202
e 127 722
e 127 240
e 127 903
e 128 637
e 128 294
e 129 721
e 129 360
e 129 754
e 129 279
e 129 991
e 129 496
e 131 576
e 131 895
e 132 909
e 132 480
e 132 233
e 135 428
e 135 396
e 135 240
e 135 398
e 135 206
e 135 302
e 137 889
e 137 168
e 137 936
e 138 391
e 138 289
e 138 246
e 138 241
e 138 530
e 138 369
e 138 368
e 139 918
e 139 886
e 139 334
e 140 357
e 140 149
e 140 366
e 141 618
e 141 927
e 141 407
e 142 408
e 142 821
e 142 711
e 142 782
e 143 394
e 143 564
e 143 296
e 144 723
e 144 969
e 144 407
e 144 401
e 148 494
e 148 607
e 148 637
e 148 757
e 149 766
e 149 180
e 149 230
e 150 202
e 150 307
e 150 860
e 150 731
e 150 920
e 151 154
e 151 634
e 151 599
e 151 797
e 152 294
e 152 572
e 152 852
e 153 728
e 153 382
e 153 915
e 154 643
e 154 902
e 154 480
e 154 599
e 155 488
e 155 392
e 156 805
e 156 185
e 156 310
e 156 496
e 156 534
e 157 680
e 157 671
e 157 646
e 159 722
e 159 556
e 160 410
e 160 643
e 160 557
e 160 304
e 162 446
e 162 313
e 162 772
e 164 349
e 164 741
e 164 754
e 164 337
e 164 877
e 164 739
e 164 951
e 165 791
e 165 269
e 166 295
e 166 772
e 166 918
e 168 797
e 169 584
e 169 860
e 169 372
e 169 265
e 169 759
e 170 798
e 170 321
e 170 959
e 171 690
e 171 235
e 171 947
e 171 808
e 172 631
e 172 508
e 172 173
e 173 541
e 173 318
e 174 686
e 174 257
e 174 446
e 174 508
e 174 778
e 174 586
e 174 530
e 175 523
e 175 745
e 175 964
e 178 631
e 178 303
e 178 180
e 178 661
e 178 382
e 178 608
e 179 824
e 179 635
e 179 681
e 179 342
e 179 892
e 179 467
e 179 778
e 180 569
e 180 838
e 180 905
e 181 987
e 181 278
e 181 347
e 181 844
e 182 204
e 182 753
e 182 586
e 182 835
e 182 452
e 183 381
e 183 583
e 183 562
e 185 389
e 186 917
e 186 606
e 186 807
e 186 819
e 186 651
e 188 655
e 188 736
e 188 465
e 188 619
e 188 482
e 189 545
e 189 881
e 189 634
e 191 280
e 191 234
e 191 503
e 191 740
e 191 728
e 193 546
e 193 750
e 193 728
e 193 245
e 194 915
e 194 917
e 194 269
e 194 573
e 194 245
e 194 719
e 195 790
e 195 379
e 195 936
e 195 332
e 196 927
e 196 596
e 196 990
e 196 709
e 196 392
e 196 878
e 197 846
e 197 550
e 197 853
e 198 889
e 198 937
e 198 505
e 198 367
e 200 288
e 200 993
e 200 369
e 200 296
e 202 591
e 202 723
e 203 478
e 203 257
e 203 795
e 204 721
e 204 695
e 206 285
e 206 720
e 206 945
e 206 920
e 206 743
e 206 314
e 207 361
e 207 260
e 210 502
e 210 515
e 210 970
e 210 945
e 210 578
e 211 600
e 211 587
e 211 740
e 211 749
e 211 340
e 212 952
e 212 806
e 212 290
e 214 886
e 214 722
e 214 943
e 214 349
e 216 946
e 216 325
e 217 821
e 217 307
e 217 239
e 218 608
e 218 432
e 218 495
e 218 489
e 220 881
e 220 698
e 220 426
e 221 921
e 221 237
e 221 760
e 223 281
e 223 905
e 223 906
e 224 770
e 224 892
e 225 739
e 225 772
e 225 550
e 225 649
e 225 396
e 227 678
e 227 305
e 227 253
e 227 800
e 227 307
e 228 262
e 228 661
e 228 957
e 230 545
e 230 821
e 231 285
e 231 620
e 231 608
e 231 936
e 231 917
e 232 433
e 232 399
e 232 518
e 232 563
e 232 605
e 232 926
e 233 741
e 233 377
e 233 605
e 234 250
e 234 368
e 235 366
e 235 673
e 235 986
e 236 987
e 236 559
e 236 587
e 237 945
e 237 900
e 238 718
e 238 530
e 238 493
e 238 781
e 238 396
e 238 524
e 238 958
e 239 656
e 239 497
e 239 937
e 240 690
e 241 826
e 241 755
e 241 643
e 241 530
e 241 386
e 242 691
e 242 419
e 242 457
e 242 493
e 242 927
e 243 538
e 243 905
e 243 974
e 243 516
e 244 737
e 244 295
e 244 782
e 245 834
e 245 862
e 245 393
e 245 472
e 245 272
e 246 793
e 246 700
e 247 755
e 247 490
e 247 631
e 247 644
e 247 314
e 248 524
e 248 274
e 248 716
e 250 551
e 250 936
e 253 747
e 253 686
e 253 328
e 254 644
e 254 893
e 254 599
e 256 636
e 256 908
e 256 938
e 256 812
e 257 744
e 258 539
e 258 544
e 258 383
e 258 337
e 258 731
e 259 346
e 259 606
e 259 581
e 259 894
e 259 557
e 259 922
e 260 533
e 260 316
e 260 463
e 262 430
e 262 769
e 262 723
e 265 540
e 265 607
e 265 549
e 266 688
e 266 597
e 267 935
e 267 691
e 267 358
e 267 748
e 267 471
e 269 735
e 269 719
e 271 302
e 271 387
e 271 625
e 271 734
e 271 826
e 272 957
e 272 879
e 272 333
e 272 341
e 273 785
e 273 943
e 273 428
e 274 895
e 274 539
e 274 462
e 274 292
e 275 616
e 275 531
e 276 598
e 276 657
e 276 285
e 278 634
e 278 282
e 278 926
e 278 743
e 279 441
e 279 578
e 279 504
e 279 733
e 279 898
e 280 800
e 280 823
e 280 724
e 281 944
e 281 914
e 281 531
e 282 328
e 282 776
e 282 803
e 282 834
e 285 726
e 285 673
e 285 727
e 285 721
e 287 951
e 287 507
e 287 895
e 288 551
e 288 734
e 288 780
e 288 863
e 288 607
e 289 773
e 289 355
e 289 867
e 289 860
e 290 855
e 290 824
e 290 301
e 290 460
e 291 501
e 291 691
e 292 390
e 292 394
e 292 532
e 293 942
e 293 322
e 293 384
e 293 940
e 293 692
e 294 372
e 294 818
e 294 345
e 295 375
e 295 536
e 295 978
e 295 302
e 296 953
e 296 358
e 298 458
e 298 321
e 298 797
e 298 893
e 299 761
e 299 684
e 299 343
e 299 670
e 300 552
e 300 684
e 300 589
e 301 750
e 301 548
e 301 384
e 301 601
e 302 460
e 303 825
e 303 487
e 304 919
e 304 971
e 304 874
e 304 758
e 304 389
e 304 569
e 304 620
e 304 840
e 304 776
e 305 593
e 305 485
e 306 603
e 306 854
e 306 783
e 307 961
e 307 427
e 307 334
e 307 512
e 309 336
e 309 328
e 309 368
e 310 688
e 310 908
e 311 719
e 311 670
e 312 793
e 312 557
e 312 831
e 312 940
e 312 747
e 313 842
e 313 645
e 313 516
e 313 352
e 314 452
e 314 417
e 314 862
e 314 332
e 315 868
e 315 813
e 316 400
e 316 334
e 316 341
e 318 815
e 318 393
e 320 452
e 320 464
e 320 860
e 320 865
e 320 610
e 320 381
e 321 398
e 321 850
e 321 691
e 322 521
e 322 707
e 323 498
e 323 748
e 323 908
e 325 590
e 325 707
e 326 698
e 326 795
e 326 338
e 327 987
e 327 521
e 327 456
e 328 697
e 331 458
e 331 512
e 331 667
e 332 595
e 332 564
e 332 619
e 332 467
e 333 596
e 333 610
e 333 334
e 333 621
e 334 498
e 334 349
e 334 894
e 335 387
e 335 635
e 335 744
e 336 493
e 336 922
e 337 810
e 337 495
e 337 976
e 337 859
e 338 863
e 338 650
e 338 530
e 340 795
e 340 698
e 340 414
e 341 424
e 341 904
e 341 716
e 341 547
e 342 779
e 342 926
e 342 427
e 343 713
e 343 478
e 343 835
e 344 738
e 344 805
e 344 589
e 345 631
e 345 740
e 345 447
e 345 394
e 346 723
e 346 700
e 347 911
e 347 945
e 349 439
e 349 507
e 349 706
e 349 914
e 352 928
e 352 750
e 353 524
e 353 857
e 353 723
e 354 621
e 354 835
e 354 757
e 355 635
e 356 596
e 356 581
e 356 496
e 356 764
e 357 610
e 357 402
e 357 812
e 358 842
e 358 637
e 358 724
e 358 919
e 360 810
e 360 410
e 361 979
e 361 838
e 361 398
e 362 602
e 362 873
e 362 770
e 362 583
e 366 754
e 366 479
e 366 900
e 366 711
e 367 488
e 367 477
e 367 854
e 367 515
e 368 996
e 368 824
e 370 925
e 370 748
e 370 897
e 370 635
e 371 618
e 371 981
e 371 665
e 372 666
e 372 660
e 372 493
e 373 942
e 373 952
e 373 711
e 373 791
e 373 866
e 375 730
e 377 640
e 377 700
e 377 894
e 377 524
e 377 503
e 377 974
e 377 458
e 377 388
e 379 439
e 379 978
e 379 516
e 380 921
e 380 752
e 380 771
e 381 754
e 382 520
e 382 957
e 383 850
e 384 697
e 386 823
e 386 732
e 387 635
e 387 965
e 387 703
e 387 821
e 388 530
e 388 432
e 388 791
e 389 826
e 389 653
e 390 811
e 390 883
e 390 907
e 390 773
e 391 721
e 391 653
e 392 758
e 393 721
e 393 947
e 393 812
e 394 937
e 394 428
e 394 484
e 394 661
e 395 599
e 395 501
e 395 581
e 395 433
e 396 905
e 398 669
e 398 580
e 398 991
e 399 819
e 399 724
e 399 686
e 399 904
e 400 922
e 400 677
e 400 730
e 400 988
e 400 793
e 400 891
e 401 756
e 401 653
e 402 975
e 402 640
e 402 463
e 402 665
e 406 620
e 406 932
e 406 678
e 407 772
e 408 505
e 408 932
e 410 623
e 410 984
e 410 793
e 410 714
e 411 414
e 411 660
e 411 713
e 411 519
e 412 608
e 412 475
e 412 859
e 413 623
e 413 932
e 413 498
e 413 816
e 413 636
e 414 752
e 414 876
e 414 623
e 417 551
e 417 680
e 419 707
e 419 704
e 419 576
e 419 858
e 422 761
e 422 521
e 422 493
e 422 806
e 424 524
e 424 719
e 426 923
e 426 907
e 426 541
e 427 798
e 428 587
e 430 917
e 430 943
e 430 680
e 430 712
e 430 706
e 432 794
e 432 874
e 433 547
e 433 551
e 435 818
e 435 468
e 436 819
e 436 849
e 436 852
e 439 853
e 439 633
e 439 914
e 439 783
e 439 540
e 439 460
e 440 635
e 440 799
e 440 677
e 441 887
e 441 651
e 441 993
e 442 970
e 442 897
e 442 504
e 445 637
e 445 746
e 446 723
e 446 644
e 446 794
e 447 876
e 447 942
e 447 531
e 447 863
e 447 659
e 450 981
e 450 756
e 450 674
e 452 597
e 452 508
e 453 873
e 453 887
e 453 721
e 454 603
e 454 459
e 454 884
e 454 494
e 455 475
e 455 465
e 455 511
e 456 472
e 456 770
e 457 480
e 457 941
e 457 831
e 458 849
e 458 523
e 458 478
e 459 658
e 459 641
e 460 814
e 462 742
e 462 546
e 462 495
e 462 928
e 462 870
e 462 779
e 463 878
e 463 806
e 463 946
e 464 810
e 464 803
e 464 490
e 464 552
e 464 900
e 465 494
e 465 545
e 465 920
e 465 704
e 467 946
e 467 779
e 468 697
e 468 706
e 468 789
e 468 620
e 469 786
e 469 608
e 469 990
e 471 807
e 471 685
e 471 586
e 472 829
e 474 851
e 474 722
e 474 671
e 474 707
e 474 545
e 475 515
e 475 887
e 477 729
e 477 787
e 478 595
e 480 586
e 480 551
e 480 848
e 482 647
e 483 969
e 483 499
e 484 713
e 484 892
e 485 718
e 487 996
e 487 858
e 488 997
e 488 857
e 488 908
e 489 746
e 489 625
e 490 921
e 490 669
e 490 689
e 490 547
e 490 593
e 493 582
e 493 831
e 495 503
e 495 799
e 496 871
e 496 693
e 496 503
e 497 727
e 497 515
e 498 776
e 499 609
e 499 623
e 499 524
e 501 937
e 501 694
e 501 953
e 502 813
e 502 603
e 502 853
e 503 784
e 503 772
e 503 836
e 503 829
e 503 956
e 504 507
e 505 825
e 507 781
e 507 538
e 507 684
e 508 767
e 508 922
e 511 586
e 511 638
e 512 534
e 512 840
e 514 921
e 514 665
e 515 666
e 517 530
e 517 595
e 517 616
e 518 600
e 518 892
e 519 649
e 519 988
e 520 702
e 520 549
e 521 803
e 523 773
e 523 851
e 524 545
e 524 767
e 524 617
e 525 965
e 525 969
e 528 936
e 528 545
e 528 714
e 528 619
e 528 600
e 528 743
e 529 738
e 529 636
e 529 808
e 530 593
e 530 984
e 531 676
e 533 647
e 533 572
e 534 590
e 534 889
e 536 709
e 536 849
e 536 750
e 536 702
e 538 873
e 538 805
e 538 542
e 538 940
e 538 944
e 539 887
e 539 783
e 540 694
e 540 754
e 541 855
e 542 640
e 542 884
e 542 896
e 544 807
e 544 896
e 544 547
e 545 884
e 545 720
e 545 679
e 546 733
e 547 830
e 547 732
e 547 760
e 547 568
e 547 937
e 548 991
e 548 726
e 549 897
e 550 789
e 550 843
e 550 771
e 551 556
e 551 807
e 551 625
e 551 590
e 551 692
e 552 561
e 557 868
e 557 917
e 559 744
e 559 605
e 561 848
e 561 659
e 561 811
e 561 713
e 562 904
e 562 563
e 562 583
e 563 990
e 564 609
e 564 938
e 565 659
e 565 878
e 565 839
e 565 906
e 568 959
e 568 829
e 568 860
e 568 753
e 568 850
e 572 726
e 572 666
e 573 748
e 573 878
e 574 756
e 574 679
e 574 768
e 576 836
e 578 932
e 578 617
e 580 948
e 580 714
e 580 877
e 580 607
e 580 676
e 580 782
e 581 691
e 582 997
e 582 779
e 583 959
e 583 711
e 583 781
e 584 785
e 584 701
e 586 607
e 587 839
e 589 781
e 590 984
e 590 998
e 591 689
e 595 757
e 596 859
e 596 893
e 596 624
e 597 854
e 597 896
e 597 700
e 597 923
e 598 634
e 598 791
e 599 923
e 599 724
e 599 933
e 599 905
e 600 818
e 601 890
e 601 656
e 601 685
e 602 737
e 602 984
e 603 700
e 603 848
e 603 743
e 603 938
e 604 957
e 604 686
e 604 958
e 605 742
e 605 968
e 605 824
e 606 843
e 606 898
e 606 756
e 606 697
e 608 681
e 608 663
e 608 660
e 610 770
e 614 818
e 614 826
e 614 898
e 616 919
e 616 853
e 617 677
e 617 915
e 617 959
e 618 983
e 618 741
e 618 837
e 619 974
e 619 754
e 619 862
e 620 706
e 620 905
e 621 773
e 621 711
e 623 928
e 624 691
e 625 850
e 631 918
e 631 897
e 633 948
e 633 900
e 634 668
e 634 807
e 634 865
e 635 647
e 636 895
e 637 947
e 637 884
e 638 752
e 638 922
e 639 926
e 639 743
e 640 689
e 640 753
e 641 889
e 641 852
e 641 655
e 644 838
e 644 819
e 644 789
e 645 931
e 645 870
e 645 963
e 646 890
e 646 858
e 646 829
e 646 902
e 647 846
e 649 915
e 650 733
e 651 734
e 651 667
e 651 803
e 653 883
e 656 906
e 657 767
e 658 941
e 658 808
e 658 782
e 659 747
e 659 671
e 659 927
e 661 729
e 661 772
e 663 744
e 663 786
e 665 974
e 666 853
e 668 681
e 668 861
e 668 884
e 669 791
e 670 947
e 670 900
e 671 859
e 673 986
e 674 903
e 674 931
e 676 914
e 677 922
e 677 808
e 678 867
e 679 764
e 679 892
e 681 902
e 681 891
e 684 859
e 685 694
e 685 736
e 686 892
e 688 776
e 688 951
e 689 719
e 689 790
e 689 802
e 689 855
e 689 849
e 690 976
e 690 923
e 691 783
e 692 881
e 693 859
e 693 703
e 693 850
e 695 773
e 695 893
e 697 946
e 697 769
e 697 878
e 698 807
e 698 936
e 700 759
e 700 843
e 701 759
e 701 815
e 701 987
e 702 806
e 703 707
e 703 746
e 704 748
e 704 970
e 706 903
e 706 915
e 709 931
e 711 766
e 711 878
e 712 739
e 712 956
e 712 964
e 712 886
e 712 945
e 712 806
e 713 990
e 713 900
e 713 879
e 714 917
e 716 928
e 718 876
e 718 958
e 720 849
e 723 756
e 724 840
e 724 748
e 727 810
e 729 896
e 730 861
e 731 952
e 732 998
e 733 821
e 735 894
e 735 904
e 736 852
e 737 854
e 737 798
e 740 846
e 740 814
e 742 906
e 742 941
e 743 892
e 743 844
e 743 797
e 744 919
e 745 933
e 745 884
e 745 888
e 746 831
e 746 752
e 748 844
e 748 931
e 748 760
e 749 768
e 749 879
e 752 766
e 753 781
e 753 925
e 753 940
e 753 814
e 755 768
e 757 884
e 759 961
e 760 786
e 761 771
e 763 860
e 763 942
e 764 922
e 768 905
e 769 911
e 769 893
e 770 812
e 772 892
e 776 812
e 776 807
e 778 855
e 778 847
e 779 808
e 780 941
e 780 839
e 782 789
e 783 891
e 784 853
e 785 799
e 786 898
e 787 991
e 787 839
e 789 949
e 794 816
e 798 984
e 798 987
e 798 810
e 800 843
e 802 931
e 802 986
e 806 878
e 806 945
e 807 858
e 808 863
e 808 942
e 808 892
e 810 814
e 811 879
e 812 935
e 813 904
e 813 886
e 815 945
e 818 824
e 818 911
e 818 844
e 819 925
e 819 961
e 819 830
e 825 997
e 830 996
e 835 968
e 837 922
e 838 968
e 838 848
e 838 850
e 838 868
e 842 941
e 844 884
e 844 908
e 846 931
e 847 917
e 847 978
e 848 876
e 850 983
e 851 948
e 851 857
e 852 996
e 854 936
e 855 893
e 858 877
e 859 874
e 860 951
e 865 910
e 866 937
e 868 983
e 871 914
e 873 988
e 878 879
e 878 970
e 879 963
e 881 937
e 883 935
e 883 969
e 886 974
e 888 903
e 888 909
e 888 935
e 889 923
e 889 941
e 890 917
e 894 975
e 895 953
e 903 976
e 907 933
e 908 949
e 909 993
e 910 929
e 911 942
e 920 951
e 921 981
e 925 947
e 926 998
e 931 964
e 933 948
e 936 979
e 942 965
e 945 964
e 946 969
e 947 949
e 952 996
e 961 976
e 991 993
